x = 19;
y = 17;
c = 75;
n = 62;

p = [16  56  42  63  99  32  35  81  21  95  23  28  26  73  91  17  15  69  52  49  46  62  83  81  75  82  91  58  75  77  94  34  41  96  93  58  75  95  16  60  37  87  43  15  55  72  95  47  64  61  52  90  90  67  27  59  74  52  64  87  27  93];
w = [10  10  9  5  6  7  5  5  6  2  9  7  4  4  5  3  8  4  6  6  10  4  7  5  5  2  9  5  3  5  5  5  2  2  10  5  6  7  4  1  1  3  6  2  6  3  9  6  9  3  10  10  7  9  5  5  2  8  2  4  8  1];
s = [9  12  11  5  8  11  14  5  7  2  17  13  4  13  13  7  12  13  9  11  17  7  14  6  8  1  11  6  15  12  7  1  14  9  10  5  1  8  3  8  13  1  5  16  1  7  11  9  1  15  2  17  5  9  9  5  17  8  9  13  11  7];
